
Gurobi 12.0.2 (win64) logging started Wed Nov 26 14:39:30 2025

Set parameter LogFile to value "resultados DATA_1_n30m10b2d2\instancia_1_log.txt"
Set parameter TimeLimit to value 3600
Gurobi Optimizer version 12.0.2 build v12.0.2rc0 (win64 - Windows 10.0 (19045.2))

CPU model: Intel(R) Core(TM) i5-6300U CPU @ 2.40GHz, instruction set [SSE2|AVX|AVX2]
Thread count: 2 physical cores, 4 logical processors, using up to 4 threads

Non-default parameters:
TimeLimit  3600

Optimize a model with 395 rows, 681 columns and 65229 nonzeros
Model fingerprint: 0xec698712
Variable types: 0 continuous, 681 integer (681 binary)
Coefficient statistics:
  Matrix range     [1e+00, 1e+00]
  Objective range  [9e-02, 2e-01]
  Bounds range     [1e+00, 1e+00]
  RHS range        [1e+00, 6e+00]
Found heuristic solution: objective 0.6163704
Presolve removed 11 rows and 583 columns
Presolve time: 0.30s
Presolved: 384 rows, 98 columns, 6138 nonzeros
Found heuristic solution: objective 0.1960000
Variable types: 0 continuous, 98 integer (98 binary)
Found heuristic solution: objective 0.6519259

Root relaxation: objective 7.946667e-01, 163 iterations, 0.02 seconds (0.01 work units)

    Nodes    |    Current Node    |     Objective Bounds      |     Work
 Expl Unexpl |  Obj  Depth IntInf | Incumbent    BestBd   Gap | It/Node Time

     0     0    0.79467    0   18    0.65193    0.79467  21.9%     -    0s
H    0     0                       0.6732593    0.79467  18.0%     -    0s
H    0     0                       0.7151111    0.79467  11.1%     -    0s
H    0     0                       0.7680741    0.79467  3.46%     -    0s
     0     0    0.78859    0   23    0.76807    0.78859  2.67%     -    0s
     0     0    0.78659    0   16    0.76807    0.78659  2.41%     -    0s
     0     0    0.78659    0   32    0.76807    0.78659  2.41%     -    0s
     0     0    0.78578    0   31    0.76807    0.78578  2.30%     -    0s
     0     0    0.78547    0   34    0.76807    0.78547  2.26%     -    0s
     0     0    0.78547    0   34    0.76807    0.78547  2.26%     -    0s
     0     0    0.78464    0   47    0.76807    0.78464  2.16%     -    0s
     0     0    0.78363    0   43    0.76807    0.78363  2.03%     -    0s
     0     0    0.78363    0   43    0.76807    0.78363  2.03%     -    0s
     0     0    0.78354    0   39    0.76807    0.78354  2.01%     -    0s
     0     0    0.78354    0   40    0.76807    0.78354  2.01%     -    0s
     0     0    0.78335    0   44    0.76807    0.78335  1.99%     -    0s
     0     0    0.78334    0   49    0.76807    0.78334  1.99%     -    0s
     0     0    0.78321    0   45    0.76807    0.78321  1.97%     -    0s
     0     0    0.78320    0   46    0.76807    0.78320  1.97%     -    0s
     0     0    0.78300    0   33    0.76807    0.78300  1.94%     -    0s
     0     0    0.78227    0   41    0.76807    0.78227  1.85%     -    0s
     0     0    0.78220    0   39    0.76807    0.78220  1.84%     -    0s
     0     0    0.78220    0   40    0.76807    0.78220  1.84%     -    0s
     0     0    0.78219    0   44    0.76807    0.78219  1.84%     -    0s
     0     0    0.78219    0   45    0.76807    0.78219  1.84%     -    0s
     0     0    0.78219    0   45    0.76807    0.78219  1.84%     -    0s
     0     0    0.78219    0   40    0.76807    0.78219  1.84%     -    0s
     0     0    0.78219    0   16    0.76807    0.78219  1.84%     -    0s
     0     0    0.78219    0   16    0.76807    0.78219  1.84%     -    0s
     0     0    0.78129    0   36    0.76807    0.78129  1.72%     -    0s
     0     0    0.78127    0   33    0.76807    0.78127  1.72%     -    0s
     0     0    0.77912    0   39    0.76807    0.77912  1.44%     -    0s
     0     0    0.77905    0   41    0.76807    0.77905  1.43%     -    0s
     0     0    0.77733    0   13    0.76807    0.77733  1.21%     -    0s
     0     0    0.77733    0   28    0.76807    0.77733  1.21%     -    0s
     0     0    0.77464    0   36    0.76807    0.77464  0.85%     -    0s
     0     0    0.77464    0   37    0.76807    0.77464  0.85%     -    0s
     0     0    0.77425    0   19    0.76807    0.77425  0.80%     -    0s
     0     0    0.77425    0   31    0.76807    0.77425  0.80%     -    1s
     0     0    0.77425    0   18    0.76807    0.77425  0.80%     -    1s
     0     0    0.77425    0   18    0.76807    0.77425  0.80%     -    1s
     0     0    0.77425    0   18    0.76807    0.77425  0.80%     -    1s
     0     0    0.77425    0   20    0.76807    0.77425  0.80%     -    1s
     0     0    0.77425    0   23    0.76807    0.77425  0.80%     -    1s
     0     0     cutoff    0         0.76807    0.76807  0.00%     -    1s

Cutting planes:
  Gomory: 8
  Clique: 1
  MIR: 6
  GUB cover: 1
  Zero half: 3

Explored 1 nodes (1289 simplex iterations) in 1.10 seconds (0.27 work units)
Thread count was 4 (of 4 available processors)

Solution count 7: 0.768074 0.768074 0.715111 ... 0.196
No other solutions better than 0.768074

Optimal solution found (tolerance 1.00e-04)
Best objective 7.680740740741e-01, best bound 7.680740740741e-01, gap 0.0000%
